mixintcount/benchmarks/random_v2l/5_5_63.in
20 7
#	x1	x2	x3	x4	x5;		0 = Real; 1 = Integer
	1	1	1	1	1
1	4	5	7	-9	3	-39
1	-10	8	-5	6	-6	-39
1	-9	-10	10	-5	10	6
1	-5	-10	7	-5	8	25
1	-3	1	10	5	1	34
1	-4	-8	-10	-10	-8	-57
1	-9	-8	1	-6	8	18
1	-8	9	1	10	-8	21
1	-3	-3	-3	-9	0	58
1	-5	5	6	-6	-3	-7
1	1	0	0	0	0	63
1	-1	0	0	0	0	63
1	0	1	0	0	0	63
1	0	-1	0	0	0	63
1	0	0	1	0	0	63
1	0	0	-1	0	0	63
1	0	0	0	1	0	63
1	0	0	0	-1	0	63
1	0	0	0	0	1	63
1	0	0	0	0	-1	63
